100
30
25
8
30
3
26
18
14
20
10
15
24
29
1
27
20
24
8
20
8
1
19
9
21
2
14
9
8
9
29
19
12
13
9
8
29
24
28
13
16
25
29
16
24
30
9
25
1
25
4
3
22
16
14
29
27
25
30
20
2
19
22
2
6
25
2
21
19
2
26
21
29
24
13
14
17
9
1
14
25
14
28
21
5
23
17
25
10
25
17
10
27
22
29
25
6
4
6
24
24
31